% Generated by MiniZinc 2.9.3
% Solver library: /opt/homebrew/Cellar/minizinc/2.9.3/share/minizinc/linear
% Command line invocation: minizinc --solver org.minizinc.mip.coin-bc --compile debruijn_binary.mzn 02_03.dzn -o debruijn_binary_coinbc.fzn 

array [1..8] of int: X_INTRODUCED_69_ = [1,1,1,1,1,1,1,1];
array [1..8] of int: X_INTRODUCED_83_ = [1,2,3,4,5,6,7,-1];
array [1..2] of int: X_INTRODUCED_225_ = [1,-1];
array [1..3] of int: X_INTRODUCED_229_ = [1,-1,7];
array [1..4] of int: X_INTRODUCED_255_ = [1,-4,-2,-1];
array [1..9] of int: X_INTRODUCED_323_ = [1,-1,-1,-1,-1,-1,-1,-1,-1];
array [1..2] of int: X_INTRODUCED_342_ = [1,1];
var 0..7: X_INTRODUCED_16_:: is_defined_var;
var 0..7: X_INTRODUCED_17_:: is_defined_var;
var 0..7: X_INTRODUCED_18_:: is_defined_var;
var 0..7: X_INTRODUCED_19_:: is_defined_var;
var 0..7: X_INTRODUCED_20_:: is_defined_var;
var 0..7: X_INTRODUCED_21_:: is_defined_var;
var 0..7: X_INTRODUCED_22_:: is_defined_var;
var 0..7: X_INTRODUCED_23_:: is_defined_var;
var 0..4: X_INTRODUCED_57_:: is_defined_var;
var 0..1: X_INTRODUCED_59_ ::var_is_introduced ;
var 0..1: X_INTRODUCED_60_ ::var_is_introduced ;
var 0..1: X_INTRODUCED_61_ ::var_is_introduced ;
var 0..1: X_INTRODUCED_62_ ::var_is_introduced ;
var 0..1: X_INTRODUCED_63_ ::var_is_introduced ;
var 0..1: X_INTRODUCED_64_ ::var_is_introduced ;
var 0..1: X_INTRODUCED_65_ ::var_is_introduced ;
var 0..1: X_INTRODUCED_66_ ::var_is_introduced ;
var 0..1: X_INTRODUCED_84_ ::var_is_introduced ;
var 0..1: X_INTRODUCED_85_ ::var_is_introduced ;
var 0..1: X_INTRODUCED_86_ ::var_is_introduced ;
var 0..1: X_INTRODUCED_87_ ::var_is_introduced ;
var 0..1: X_INTRODUCED_88_ ::var_is_introduced ;
var 0..1: X_INTRODUCED_89_ ::var_is_introduced ;
var 0..1: X_INTRODUCED_90_ ::var_is_introduced ;
var 0..1: X_INTRODUCED_91_ ::var_is_introduced ;
var 0..1: X_INTRODUCED_101_ ::var_is_introduced ;
var 0..1: X_INTRODUCED_102_ ::var_is_introduced ;
var 0..1: X_INTRODUCED_103_ ::var_is_introduced ;
var 0..1: X_INTRODUCED_104_ ::var_is_introduced ;
var 0..1: X_INTRODUCED_105_ ::var_is_introduced ;
var 0..1: X_INTRODUCED_106_ ::var_is_introduced ;
var 0..1: X_INTRODUCED_107_ ::var_is_introduced ;
var 0..1: X_INTRODUCED_108_ ::var_is_introduced ;
var 0..1: X_INTRODUCED_118_ ::var_is_introduced ;
var 0..1: X_INTRODUCED_119_ ::var_is_introduced ;
var 0..1: X_INTRODUCED_120_ ::var_is_introduced ;
var 0..1: X_INTRODUCED_121_ ::var_is_introduced ;
var 0..1: X_INTRODUCED_122_ ::var_is_introduced ;
var 0..1: X_INTRODUCED_123_ ::var_is_introduced ;
var 0..1: X_INTRODUCED_124_ ::var_is_introduced ;
var 0..1: X_INTRODUCED_125_ ::var_is_introduced ;
var 0..1: X_INTRODUCED_135_ ::var_is_introduced ;
var 0..1: X_INTRODUCED_136_ ::var_is_introduced ;
var 0..1: X_INTRODUCED_137_ ::var_is_introduced ;
var 0..1: X_INTRODUCED_138_ ::var_is_introduced ;
var 0..1: X_INTRODUCED_139_ ::var_is_introduced ;
var 0..1: X_INTRODUCED_140_ ::var_is_introduced ;
var 0..1: X_INTRODUCED_141_ ::var_is_introduced ;
var 0..1: X_INTRODUCED_142_ ::var_is_introduced ;
var 0..1: X_INTRODUCED_152_ ::var_is_introduced ;
var 0..1: X_INTRODUCED_153_ ::var_is_introduced ;
var 0..1: X_INTRODUCED_154_ ::var_is_introduced ;
var 0..1: X_INTRODUCED_155_ ::var_is_introduced ;
var 0..1: X_INTRODUCED_156_ ::var_is_introduced ;
var 0..1: X_INTRODUCED_157_ ::var_is_introduced ;
var 0..1: X_INTRODUCED_158_ ::var_is_introduced ;
var 0..1: X_INTRODUCED_159_ ::var_is_introduced ;
var 0..1: X_INTRODUCED_169_ ::var_is_introduced ;
var 0..1: X_INTRODUCED_170_ ::var_is_introduced ;
var 0..1: X_INTRODUCED_171_ ::var_is_introduced ;
var 0..1: X_INTRODUCED_172_ ::var_is_introduced ;
var 0..1: X_INTRODUCED_173_ ::var_is_introduced ;
var 0..1: X_INTRODUCED_174_ ::var_is_introduced ;
var 0..1: X_INTRODUCED_175_ ::var_is_introduced ;
var 0..1: X_INTRODUCED_176_ ::var_is_introduced ;
var 0..1: X_INTRODUCED_186_ ::var_is_introduced ;
var 0..1: X_INTRODUCED_187_ ::var_is_introduced ;
var 0..1: X_INTRODUCED_188_ ::var_is_introduced ;
var 0..1: X_INTRODUCED_189_ ::var_is_introduced ;
var 0..1: X_INTRODUCED_190_ ::var_is_introduced ;
var 0..1: X_INTRODUCED_191_ ::var_is_introduced ;
var 0..1: X_INTRODUCED_192_ ::var_is_introduced ;
var 0..1: X_INTRODUCED_193_ ::var_is_introduced ;
var 0..1: X_INTRODUCED_213_ ::var_is_introduced ;
var 0..1: X_INTRODUCED_214_ ::var_is_introduced ;
var 0..1: X_INTRODUCED_215_ ::var_is_introduced ;
var 0..1: X_INTRODUCED_216_ ::var_is_introduced ;
var 0..1: X_INTRODUCED_217_ ::var_is_introduced ;
var 0..1: X_INTRODUCED_218_ ::var_is_introduced ;
var 0..1: X_INTRODUCED_219_ ::var_is_introduced ;
var 0..1: X_INTRODUCED_220_ ::var_is_introduced ;
var 0..1: X_INTRODUCED_307_ ::var_is_introduced ;
var 0..1: X_INTRODUCED_309_ ::var_is_introduced ;
var 0..1: X_INTRODUCED_311_ ::var_is_introduced ;
var 0..1: X_INTRODUCED_313_ ::var_is_introduced ;
var 0..1: X_INTRODUCED_315_ ::var_is_introduced ;
var 0..1: X_INTRODUCED_317_ ::var_is_introduced ;
var 0..1: X_INTRODUCED_319_ ::var_is_introduced ;
var 0..1: X_INTRODUCED_321_ ::var_is_introduced ;
var 0..1: X_INTRODUCED_325_ ::var_is_introduced :: is_defined_var;
var 0..1: X_INTRODUCED_327_ ::var_is_introduced :: is_defined_var;
var 0..1: X_INTRODUCED_329_ ::var_is_introduced :: is_defined_var;
var 0..1: X_INTRODUCED_331_ ::var_is_introduced :: is_defined_var;
var 0..1: X_INTRODUCED_333_ ::var_is_introduced :: is_defined_var;
var 0..1: X_INTRODUCED_335_ ::var_is_introduced :: is_defined_var;
var 0..1: X_INTRODUCED_337_ ::var_is_introduced :: is_defined_var;
var 0..1: X_INTRODUCED_339_ ::var_is_introduced :: is_defined_var;
array [1..8] of var int: x:: output_array([1..8]) = [X_INTRODUCED_16_,X_INTRODUCED_17_,X_INTRODUCED_18_,X_INTRODUCED_19_,X_INTRODUCED_20_,X_INTRODUCED_21_,X_INTRODUCED_22_,X_INTRODUCED_23_];
array [1..24] of var int: X_INTRODUCED_24_:: output_array([1..24]) = [X_INTRODUCED_325_,X_INTRODUCED_327_,X_INTRODUCED_329_,X_INTRODUCED_327_,X_INTRODUCED_329_,X_INTRODUCED_331_,X_INTRODUCED_329_,X_INTRODUCED_331_,X_INTRODUCED_333_,X_INTRODUCED_331_,X_INTRODUCED_333_,X_INTRODUCED_335_,X_INTRODUCED_333_,X_INTRODUCED_335_,X_INTRODUCED_337_,X_INTRODUCED_335_,X_INTRODUCED_337_,X_INTRODUCED_339_,X_INTRODUCED_337_,X_INTRODUCED_339_,X_INTRODUCED_325_,X_INTRODUCED_339_,X_INTRODUCED_325_,X_INTRODUCED_327_];
array [1..8] of var int: bin_code:: output_array([1..8]) = [X_INTRODUCED_325_,X_INTRODUCED_327_,X_INTRODUCED_329_,X_INTRODUCED_331_,X_INTRODUCED_333_,X_INTRODUCED_335_,X_INTRODUCED_337_,X_INTRODUCED_339_];
array [1..2] of var int: gcc:: output_array([1..2]) = [X_INTRODUCED_57_,X_INTRODUCED_57_];
array [1..8] of var int: X_INTRODUCED_67_ ::var_is_introduced  = [X_INTRODUCED_59_,X_INTRODUCED_60_,X_INTRODUCED_61_,X_INTRODUCED_62_,X_INTRODUCED_63_,X_INTRODUCED_64_,X_INTRODUCED_65_,X_INTRODUCED_66_];
array [1..8] of var int: X_INTRODUCED_92_ ::var_is_introduced  = [X_INTRODUCED_84_,X_INTRODUCED_85_,X_INTRODUCED_86_,X_INTRODUCED_87_,X_INTRODUCED_88_,X_INTRODUCED_89_,X_INTRODUCED_90_,X_INTRODUCED_91_];
array [1..8] of var int: X_INTRODUCED_109_ ::var_is_introduced  = [X_INTRODUCED_101_,X_INTRODUCED_102_,X_INTRODUCED_103_,X_INTRODUCED_104_,X_INTRODUCED_105_,X_INTRODUCED_106_,X_INTRODUCED_107_,X_INTRODUCED_108_];
array [1..8] of var int: X_INTRODUCED_126_ ::var_is_introduced  = [X_INTRODUCED_118_,X_INTRODUCED_119_,X_INTRODUCED_120_,X_INTRODUCED_121_,X_INTRODUCED_122_,X_INTRODUCED_123_,X_INTRODUCED_124_,X_INTRODUCED_125_];
array [1..8] of var int: X_INTRODUCED_143_ ::var_is_introduced  = [X_INTRODUCED_135_,X_INTRODUCED_136_,X_INTRODUCED_137_,X_INTRODUCED_138_,X_INTRODUCED_139_,X_INTRODUCED_140_,X_INTRODUCED_141_,X_INTRODUCED_142_];
array [1..8] of var int: X_INTRODUCED_160_ ::var_is_introduced  = [X_INTRODUCED_152_,X_INTRODUCED_153_,X_INTRODUCED_154_,X_INTRODUCED_155_,X_INTRODUCED_156_,X_INTRODUCED_157_,X_INTRODUCED_158_,X_INTRODUCED_159_];
array [1..8] of var int: X_INTRODUCED_177_ ::var_is_introduced  = [X_INTRODUCED_169_,X_INTRODUCED_170_,X_INTRODUCED_171_,X_INTRODUCED_172_,X_INTRODUCED_173_,X_INTRODUCED_174_,X_INTRODUCED_175_,X_INTRODUCED_176_];
array [1..8] of var int: X_INTRODUCED_194_ ::var_is_introduced  = [X_INTRODUCED_186_,X_INTRODUCED_187_,X_INTRODUCED_188_,X_INTRODUCED_189_,X_INTRODUCED_190_,X_INTRODUCED_191_,X_INTRODUCED_192_,X_INTRODUCED_193_];
constraint int_lin_eq(X_INTRODUCED_69_,[X_INTRODUCED_59_,X_INTRODUCED_60_,X_INTRODUCED_61_,X_INTRODUCED_62_,X_INTRODUCED_63_,X_INTRODUCED_64_,X_INTRODUCED_65_,X_INTRODUCED_66_],1);
constraint int_lin_eq(X_INTRODUCED_83_,[X_INTRODUCED_60_,X_INTRODUCED_61_,X_INTRODUCED_62_,X_INTRODUCED_63_,X_INTRODUCED_64_,X_INTRODUCED_65_,X_INTRODUCED_66_,X_INTRODUCED_16_],0):: defines_var(X_INTRODUCED_16_);
constraint int_lin_eq(X_INTRODUCED_69_,[X_INTRODUCED_84_,X_INTRODUCED_85_,X_INTRODUCED_86_,X_INTRODUCED_87_,X_INTRODUCED_88_,X_INTRODUCED_89_,X_INTRODUCED_90_,X_INTRODUCED_91_],1);
constraint int_lin_eq(X_INTRODUCED_83_,[X_INTRODUCED_85_,X_INTRODUCED_86_,X_INTRODUCED_87_,X_INTRODUCED_88_,X_INTRODUCED_89_,X_INTRODUCED_90_,X_INTRODUCED_91_,X_INTRODUCED_17_],0):: defines_var(X_INTRODUCED_17_);
constraint int_lin_eq(X_INTRODUCED_69_,[X_INTRODUCED_101_,X_INTRODUCED_102_,X_INTRODUCED_103_,X_INTRODUCED_104_,X_INTRODUCED_105_,X_INTRODUCED_106_,X_INTRODUCED_107_,X_INTRODUCED_108_],1);
constraint int_lin_eq(X_INTRODUCED_83_,[X_INTRODUCED_102_,X_INTRODUCED_103_,X_INTRODUCED_104_,X_INTRODUCED_105_,X_INTRODUCED_106_,X_INTRODUCED_107_,X_INTRODUCED_108_,X_INTRODUCED_18_],0):: defines_var(X_INTRODUCED_18_);
constraint int_lin_eq(X_INTRODUCED_69_,[X_INTRODUCED_118_,X_INTRODUCED_119_,X_INTRODUCED_120_,X_INTRODUCED_121_,X_INTRODUCED_122_,X_INTRODUCED_123_,X_INTRODUCED_124_,X_INTRODUCED_125_],1);
constraint int_lin_eq(X_INTRODUCED_83_,[X_INTRODUCED_119_,X_INTRODUCED_120_,X_INTRODUCED_121_,X_INTRODUCED_122_,X_INTRODUCED_123_,X_INTRODUCED_124_,X_INTRODUCED_125_,X_INTRODUCED_19_],0):: defines_var(X_INTRODUCED_19_);
constraint int_lin_eq(X_INTRODUCED_69_,[X_INTRODUCED_135_,X_INTRODUCED_136_,X_INTRODUCED_137_,X_INTRODUCED_138_,X_INTRODUCED_139_,X_INTRODUCED_140_,X_INTRODUCED_141_,X_INTRODUCED_142_],1);
constraint int_lin_eq(X_INTRODUCED_83_,[X_INTRODUCED_136_,X_INTRODUCED_137_,X_INTRODUCED_138_,X_INTRODUCED_139_,X_INTRODUCED_140_,X_INTRODUCED_141_,X_INTRODUCED_142_,X_INTRODUCED_20_],0):: defines_var(X_INTRODUCED_20_);
constraint int_lin_eq(X_INTRODUCED_69_,[X_INTRODUCED_152_,X_INTRODUCED_153_,X_INTRODUCED_154_,X_INTRODUCED_155_,X_INTRODUCED_156_,X_INTRODUCED_157_,X_INTRODUCED_158_,X_INTRODUCED_159_],1);
constraint int_lin_eq(X_INTRODUCED_83_,[X_INTRODUCED_153_,X_INTRODUCED_154_,X_INTRODUCED_155_,X_INTRODUCED_156_,X_INTRODUCED_157_,X_INTRODUCED_158_,X_INTRODUCED_159_,X_INTRODUCED_21_],0):: defines_var(X_INTRODUCED_21_);
constraint int_lin_eq(X_INTRODUCED_69_,[X_INTRODUCED_169_,X_INTRODUCED_170_,X_INTRODUCED_171_,X_INTRODUCED_172_,X_INTRODUCED_173_,X_INTRODUCED_174_,X_INTRODUCED_175_,X_INTRODUCED_176_],1);
constraint int_lin_eq(X_INTRODUCED_83_,[X_INTRODUCED_170_,X_INTRODUCED_171_,X_INTRODUCED_172_,X_INTRODUCED_173_,X_INTRODUCED_174_,X_INTRODUCED_175_,X_INTRODUCED_176_,X_INTRODUCED_22_],0):: defines_var(X_INTRODUCED_22_);
constraint int_lin_eq(X_INTRODUCED_69_,[X_INTRODUCED_186_,X_INTRODUCED_187_,X_INTRODUCED_188_,X_INTRODUCED_189_,X_INTRODUCED_190_,X_INTRODUCED_191_,X_INTRODUCED_192_,X_INTRODUCED_193_],1);
constraint int_lin_eq(X_INTRODUCED_83_,[X_INTRODUCED_187_,X_INTRODUCED_188_,X_INTRODUCED_189_,X_INTRODUCED_190_,X_INTRODUCED_191_,X_INTRODUCED_192_,X_INTRODUCED_193_,X_INTRODUCED_23_],0):: defines_var(X_INTRODUCED_23_);
constraint int_lin_le(X_INTRODUCED_69_,[X_INTRODUCED_59_,X_INTRODUCED_84_,X_INTRODUCED_101_,X_INTRODUCED_118_,X_INTRODUCED_135_,X_INTRODUCED_152_,X_INTRODUCED_169_,X_INTRODUCED_186_],1);
constraint int_lin_le(X_INTRODUCED_69_,[X_INTRODUCED_60_,X_INTRODUCED_85_,X_INTRODUCED_102_,X_INTRODUCED_119_,X_INTRODUCED_136_,X_INTRODUCED_153_,X_INTRODUCED_170_,X_INTRODUCED_187_],1);
constraint int_lin_le(X_INTRODUCED_69_,[X_INTRODUCED_61_,X_INTRODUCED_86_,X_INTRODUCED_103_,X_INTRODUCED_120_,X_INTRODUCED_137_,X_INTRODUCED_154_,X_INTRODUCED_171_,X_INTRODUCED_188_],1);
constraint int_lin_le(X_INTRODUCED_69_,[X_INTRODUCED_62_,X_INTRODUCED_87_,X_INTRODUCED_104_,X_INTRODUCED_121_,X_INTRODUCED_138_,X_INTRODUCED_155_,X_INTRODUCED_172_,X_INTRODUCED_189_],1);
constraint int_lin_le(X_INTRODUCED_69_,[X_INTRODUCED_63_,X_INTRODUCED_88_,X_INTRODUCED_105_,X_INTRODUCED_122_,X_INTRODUCED_139_,X_INTRODUCED_156_,X_INTRODUCED_173_,X_INTRODUCED_190_],1);
constraint int_lin_le(X_INTRODUCED_69_,[X_INTRODUCED_64_,X_INTRODUCED_89_,X_INTRODUCED_106_,X_INTRODUCED_123_,X_INTRODUCED_140_,X_INTRODUCED_157_,X_INTRODUCED_174_,X_INTRODUCED_191_],1);
constraint int_lin_le(X_INTRODUCED_69_,[X_INTRODUCED_65_,X_INTRODUCED_90_,X_INTRODUCED_107_,X_INTRODUCED_124_,X_INTRODUCED_141_,X_INTRODUCED_158_,X_INTRODUCED_175_,X_INTRODUCED_192_],1);
constraint int_lin_le(X_INTRODUCED_69_,[X_INTRODUCED_66_,X_INTRODUCED_91_,X_INTRODUCED_108_,X_INTRODUCED_125_,X_INTRODUCED_142_,X_INTRODUCED_159_,X_INTRODUCED_176_,X_INTRODUCED_193_],1);
constraint int_lin_eq(X_INTRODUCED_69_,[X_INTRODUCED_213_,X_INTRODUCED_214_,X_INTRODUCED_215_,X_INTRODUCED_216_,X_INTRODUCED_217_,X_INTRODUCED_218_,X_INTRODUCED_219_,X_INTRODUCED_220_],1);
constraint int_lin_le(X_INTRODUCED_225_,[X_INTRODUCED_16_,X_INTRODUCED_17_],0);
constraint int_lin_le(X_INTRODUCED_229_,[X_INTRODUCED_17_,X_INTRODUCED_16_,X_INTRODUCED_214_],7);
constraint int_lin_le(X_INTRODUCED_225_,[X_INTRODUCED_16_,X_INTRODUCED_18_],0);
constraint int_lin_le(X_INTRODUCED_229_,[X_INTRODUCED_18_,X_INTRODUCED_16_,X_INTRODUCED_215_],7);
constraint int_lin_le(X_INTRODUCED_225_,[X_INTRODUCED_16_,X_INTRODUCED_19_],0);
constraint int_lin_le(X_INTRODUCED_229_,[X_INTRODUCED_19_,X_INTRODUCED_16_,X_INTRODUCED_216_],7);
constraint int_lin_le(X_INTRODUCED_225_,[X_INTRODUCED_16_,X_INTRODUCED_20_],0);
constraint int_lin_le(X_INTRODUCED_229_,[X_INTRODUCED_20_,X_INTRODUCED_16_,X_INTRODUCED_217_],7);
constraint int_lin_le(X_INTRODUCED_225_,[X_INTRODUCED_16_,X_INTRODUCED_21_],0);
constraint int_lin_le(X_INTRODUCED_229_,[X_INTRODUCED_21_,X_INTRODUCED_16_,X_INTRODUCED_218_],7);
constraint int_lin_le(X_INTRODUCED_225_,[X_INTRODUCED_16_,X_INTRODUCED_22_],0);
constraint int_lin_le(X_INTRODUCED_229_,[X_INTRODUCED_22_,X_INTRODUCED_16_,X_INTRODUCED_219_],7);
constraint int_lin_le(X_INTRODUCED_225_,[X_INTRODUCED_16_,X_INTRODUCED_23_],0);
constraint int_lin_le(X_INTRODUCED_229_,[X_INTRODUCED_23_,X_INTRODUCED_16_,X_INTRODUCED_220_],7);
constraint int_lin_eq(X_INTRODUCED_255_,[X_INTRODUCED_16_,X_INTRODUCED_325_,X_INTRODUCED_327_,X_INTRODUCED_329_],0);
constraint int_lin_eq(X_INTRODUCED_255_,[X_INTRODUCED_17_,X_INTRODUCED_327_,X_INTRODUCED_329_,X_INTRODUCED_331_],0);
constraint int_lin_eq(X_INTRODUCED_255_,[X_INTRODUCED_18_,X_INTRODUCED_329_,X_INTRODUCED_331_,X_INTRODUCED_333_],0);
constraint int_lin_eq(X_INTRODUCED_255_,[X_INTRODUCED_19_,X_INTRODUCED_331_,X_INTRODUCED_333_,X_INTRODUCED_335_],0);
constraint int_lin_eq(X_INTRODUCED_255_,[X_INTRODUCED_20_,X_INTRODUCED_333_,X_INTRODUCED_335_,X_INTRODUCED_337_],0);
constraint int_lin_eq(X_INTRODUCED_255_,[X_INTRODUCED_21_,X_INTRODUCED_335_,X_INTRODUCED_337_,X_INTRODUCED_339_],0);
constraint int_lin_eq(X_INTRODUCED_255_,[X_INTRODUCED_22_,X_INTRODUCED_337_,X_INTRODUCED_339_,X_INTRODUCED_325_],0);
constraint int_lin_eq(X_INTRODUCED_255_,[X_INTRODUCED_23_,X_INTRODUCED_339_,X_INTRODUCED_325_,X_INTRODUCED_327_],0);
constraint int_lin_eq(X_INTRODUCED_323_,[X_INTRODUCED_57_,X_INTRODUCED_307_,X_INTRODUCED_309_,X_INTRODUCED_311_,X_INTRODUCED_313_,X_INTRODUCED_315_,X_INTRODUCED_317_,X_INTRODUCED_319_,X_INTRODUCED_321_],0):: defines_var(X_INTRODUCED_57_);
constraint int_lin_eq(X_INTRODUCED_323_,[X_INTRODUCED_57_,X_INTRODUCED_325_,X_INTRODUCED_327_,X_INTRODUCED_329_,X_INTRODUCED_331_,X_INTRODUCED_333_,X_INTRODUCED_335_,X_INTRODUCED_337_,X_INTRODUCED_339_],0);
constraint int_lin_eq(X_INTRODUCED_342_,[X_INTRODUCED_325_,X_INTRODUCED_307_],1):: defines_var(X_INTRODUCED_325_);
constraint int_lin_eq(X_INTRODUCED_342_,[X_INTRODUCED_327_,X_INTRODUCED_309_],1):: defines_var(X_INTRODUCED_327_);
constraint int_lin_eq(X_INTRODUCED_342_,[X_INTRODUCED_329_,X_INTRODUCED_311_],1):: defines_var(X_INTRODUCED_329_);
constraint int_lin_eq(X_INTRODUCED_342_,[X_INTRODUCED_331_,X_INTRODUCED_313_],1):: defines_var(X_INTRODUCED_331_);
constraint int_lin_eq(X_INTRODUCED_342_,[X_INTRODUCED_333_,X_INTRODUCED_315_],1):: defines_var(X_INTRODUCED_333_);
constraint int_lin_eq(X_INTRODUCED_342_,[X_INTRODUCED_335_,X_INTRODUCED_317_],1):: defines_var(X_INTRODUCED_335_);
constraint int_lin_eq(X_INTRODUCED_342_,[X_INTRODUCED_337_,X_INTRODUCED_319_],1):: defines_var(X_INTRODUCED_337_);
constraint int_lin_eq(X_INTRODUCED_342_,[X_INTRODUCED_339_,X_INTRODUCED_321_],1):: defines_var(X_INTRODUCED_339_);
solve :: int_search(x,first_fail,indomain_split,complete) satisfy;
